N: 2000
R: 1000
Capacities: 487085
------
Total value: 487085
Total weight: 487085
Packed Items: [0, 1, 2, 3, 4, 5, 6, 7, 8, 9, 10, 11, 12, 13, 14, 15, 16, 17, 18, 19, 20, 21, 22, 23, 24, 25, 26, 27, 28, 29, 30, 31, 32, 33, 34, 35, 36, 37, 38, 39, 40, 41, 42, 43, 44, 45, 46, 47, 48, 49, 50, 51, 52, 53, 54, 55, 56, 57, 58, 59, 60, 61, 62, 63, 64, 65, 66, 67, 68, 69, 70, 71, 72, 73, 74, 75, 76, 77, 78, 79, 80, 81, 82, 83, 84, 85, 86, 87, 88, 89, 90, 91, 92, 93, 94, 95, 96, 97, 98, 99, 100, 101, 102, 103, 104, 105, 106, 107, 108, 109, 110, 111, 112, 113, 114, 115, 116, 117, 118, 119, 120, 121, 122, 123, 124, 125, 126, 127, 128, 129, 130, 131, 132, 133, 134, 135, 136, 137, 138, 139, 140, 141, 142, 143, 144, 145, 146, 147, 148, 149, 150, 151, 152, 153, 154, 155, 156, 157, 158, 159, 160, 161, 162, 163, 164, 165, 166, 167, 168, 169, 170, 171, 172, 173, 174, 175, 176, 177, 178, 179, 180, 181, 182, 183, 184, 185, 186, 187, 188, 189, 190, 191, 192, 193, 194, 195, 196, 197, 198, 199, 200, 201, 202, 203, 204, 205, 206, 207, 208, 209, 210, 211, 212, 213, 214, 215, 216, 217, 218, 219, 220, 221, 222, 223, 224, 225, 226, 227, 228, 229, 230, 231, 232, 233, 234, 235, 236, 237, 238, 239, 240, 241, 242, 243, 244, 245, 246, 247, 248, 249, 250, 251, 252, 253, 254, 255, 256, 257, 258, 259, 260, 261, 262, 263, 264, 265, 266, 267, 268, 269, 270, 271, 272, 273, 274, 275, 276, 277, 278, 279, 280, 281, 282, 283, 284, 285, 286, 287, 288, 289, 290, 291, 292, 293, 294, 295, 296, 297, 298, 299, 300, 301, 302, 303, 304, 305, 306, 307, 308, 309, 310, 311, 312, 313, 314, 315, 316, 317, 318, 319, 320, 321, 322, 323, 324, 325, 326, 327, 328, 329, 330, 331, 332, 333, 334, 335, 336, 337, 338, 339, 340, 341, 342, 343, 344, 345, 346, 347, 348, 349, 350, 351, 352, 353, 354, 355, 356, 357, 358, 359, 360, 361, 362, 363, 364, 365, 366, 367, 368, 369, 370, 371, 372, 373, 374, 375, 376, 377, 378, 379, 380, 381, 382, 383, 384, 385, 386, 387, 388, 389, 390, 391, 392, 393, 394, 395, 396, 397, 398, 399, 400, 401, 402, 403, 404, 405, 406, 407, 408, 409, 410, 411, 412, 413, 414, 415, 416, 417, 418, 419, 420, 421, 422, 423, 424, 425, 426, 427, 428, 429, 430, 431, 432, 433, 434, 435, 436, 437, 438, 439, 440, 441, 442, 443, 444, 445, 446, 447, 448, 449, 450, 451, 452, 453, 454, 455, 456, 457, 458, 459, 460, 461, 462, 463, 464, 465, 466, 467, 468, 469, 470, 471, 472, 473, 474, 475, 476, 477, 478, 479, 480, 481, 482, 483, 484, 485, 486, 487, 488, 489, 490, 491, 492, 493, 494, 495, 496, 497, 498, 499, 500, 501, 502, 503, 504, 505, 506, 507, 508, 509, 510, 511, 512, 513, 514, 515, 516, 517, 518, 519, 520, 521, 522, 523, 524, 525, 526, 527, 528, 529, 530, 531, 532, 533, 534, 535, 536, 537, 538, 539, 540, 541, 542, 543, 544, 545, 546, 547, 548, 549, 550, 551, 552, 553, 554, 555, 556, 557, 558, 559, 560, 561, 562, 563, 564, 565, 566, 567, 568, 569, 570, 571, 572, 573, 574, 575, 576, 577, 578, 579, 580, 581, 582, 583, 584, 585, 586, 587, 588, 589, 590, 591, 592, 593, 594, 595, 596, 597, 598, 599, 600, 601, 602, 603, 604, 605, 606, 607, 608, 609, 610, 611, 612, 613, 614, 615, 616, 617, 618, 619, 620, 621, 622, 623, 624, 625, 626, 627, 628, 629, 630, 631, 632, 633, 634, 635, 636, 637, 638, 639, 640, 641, 642, 643, 644, 645, 646, 647, 648, 649, 650, 651, 652, 653, 654, 655, 656, 657, 658, 659, 660, 661, 662, 663, 664, 665, 666, 667, 668, 669, 670, 671, 672, 673, 674, 675, 676, 677, 678, 679, 680, 681, 682, 683, 684, 685, 686, 687, 688, 689, 690, 691, 692, 693, 694, 695, 696, 697, 698, 699, 700, 701, 702, 703, 704, 705, 706, 707, 708, 709, 710, 711, 712, 713, 714, 715, 716, 717, 718, 719, 720, 721, 722, 723, 724, 725, 726, 727, 728, 729, 730, 731, 732, 733, 734, 735, 736, 737, 738, 739, 740, 741, 742, 743, 744, 745, 746, 747, 748, 749, 750, 751, 752, 753, 754, 755, 756, 757, 758, 759, 760, 761, 762, 763, 764, 765, 766, 767, 768, 769, 770, 771, 772, 773, 774, 775, 776, 777, 778, 779, 780, 781, 782, 783, 784, 785, 786, 787, 788, 789, 790, 791, 792, 793, 794, 795, 796, 797, 798, 799, 800, 801, 802, 803, 804, 805, 806, 807, 808, 809, 810, 811, 812, 813, 814, 815, 816, 817, 818, 819, 820, 821, 822, 823, 824, 825, 826, 827, 828, 829, 830, 831, 832, 833, 834, 835, 836, 837, 838, 839, 840, 842, 843, 844, 845, 846, 847, 848, 849, 850, 851, 852, 853, 854, 855, 856, 857, 858, 859, 860, 861, 862, 863, 864, 865, 866, 867, 868, 869, 870, 871, 872, 873, 874, 875, 876, 877, 878, 879, 880, 881, 882, 883, 884, 885, 886, 887, 888, 889, 890, 891, 892, 893, 894, 895, 896, 897, 898, 899, 900, 901, 902, 903, 904, 905, 906, 907, 908, 909, 910, 911, 912, 913, 914, 915, 916, 917, 918, 919, 920, 921, 922, 923, 924, 925, 926, 927, 928, 929, 930, 931, 933, 934, 935, 936, 937, 938, 939, 940, 941, 942, 943, 944, 945, 946, 947, 948, 949, 950, 951, 952, 953, 954, 955, 956, 957, 958, 959, 960, 961, 962, 963, 964, 965, 966, 967, 968, 969, 970, 971, 973, 974, 975, 976, 977, 978, 979, 980, 981, 982, 983, 984, 985, 986, 987, 988, ]
Packed Weights: [623, 742, 796, 943, 740, 923, 30, 466, 944, 649, 901, 114, 470, 247, 544, 574, 14, 217, 280, 917, 766, 160, 798, 139, 618, 127, 2, 872, 210, 216, 983, 873, 290, 962, 540, 678, 205, 941, 691, 967, 894, 299, 362, 166, 146, 66, 302, 604, 4, 678, 338, 310, 819, 481, 316, 482, 705, 58, 976, 23, 750, 845, 19, 788, 367, 579, 10, 47, 181, 956, 197, 756, 930, 943, 345, 355, 525, 776, 109, 749, 798, 860, 37, 946, 92, 341, 611, 919, 340, 925, 546, 313, 317, 178, 79, 149, 690, 997, 162, 49, 987, 534, 406, 238, 594, 827, 456, 422, 56, 917, 33, 494, 839, 131, 732, 950, 631, 789, 107, 435, 150, 845, 295, 454, 1000, 853, 977, 454, 489, 730, 480, 292, 404, 147, 378, 989, 960, 627, 500, 339, 90, 273, 783, 868, 362, 787, 775, 695, 665, 760, 364, 705, 281, 486, 770, 691, 294, 946, 650, 581, 12, 547, 251, 672, 463, 817, 648, 798, 348, 645, 738, 829, 351, 843, 870, 689, 977, 957, 519, 530, 167, 837, 938, 478, 692, 720, 731, 172, 781, 581, 666, 421, 624, 775, 637, 721, 28, 161, 442, 651, 220, 686, 631, 42, 472, 227, 55, 134, 318, 182, 194, 36, 466, 381, 612, 591, 238, 904, 1, 406, 279, 411, 116, 832, 374, 37, 614, 95, 546, 340, 581, 959, 819, 420, 813, 643, 370, 143, 596, 564, 958, 968, 609, 352, 894, 1, 108, 566, 616, 141, 630, 892, 376, 432, 227, 292, 973, 380, 962, 914, 596, 260, 981, 497, 416, 320, 985, 492, 287, 477, 122, 622, 444, 294, 782, 827, 14, 533, 274, 936, 782, 246, 268, 155, 989, 294, 609, 475, 645, 604, 744, 119, 761, 301, 534, 337, 297, 530, 465, 362, 746, 591, 37, 253, 456, 917, 888, 546, 15, 779, 428, 576, 709, 633, 482, 912, 386, 392, 852, 197, 297, 831, 67, 837, 695, 433, 287, 781, 911, 143, 479, 550, 498, 331, 154, 586, 812, 69, 231, 820, 792, 664, 26, 723, 979, 999, 702, 49, 843, 220, 646, 953, 713, 135, 293, 918, 150, 611, 414, 162, 623, 44, 109, 380, 73, 58, 576, 743, 879, 135, 432, 315, 601, 490, 939, 375, 56, 698, 152, 632, 506, 911, 555, 621, 264, 552, 255, 751, 517, 134, 235, 372, 737, 180, 714, 656, 86, 668, 92, 125, 594, 239, 877, 481, 324, 797, 30, 726, 54, 151, 953, 682, 224, 117, 973, 666, 821, 140, 625, 355, 236, 334, 614, 349, 386, 137, 832, 648, 805, 434, 852, 518, 593, 574, 741, 396, 97, 34, 203, 40, 890, 481, 761, 1, 471, 890, 620, 429, 466, 100, 155, 160, 375, 386, 881, 153, 255, 278, 162, 288, 236, 483, 33, 925, 369, 938, 688, 674, 472, 946, 118, 669, 292, 675, 730, 164, 202, 25, 231, 79, 402, 974, 365, 312, 469, 284, 733, 718, 164, 241, 673, 941, 646, 431, 976, 7, 61, 780, 411, 45, 549, 990, 519, 351, 94, 72, 899, 492, 936, 54, 244, 51, 398, 61, 256, 408, 306, 52, 38, 972, 180, 509, 403, 532, 85, 314, 108, 542, 922, 599, 857, 215, 18, 540, 487, 572, 377, 626, 726, 913, 308, 450, 827, 224, 116, 312, 88, 773, 820, 313, 130, 82, 245, 85, 429, 577, 246, 62, 701, 49, 200, 287, 374, 99, 421, 314, 753, 557, 897, 655, 760, 575, 443, 817, 656, 955, 729, 702, 268, 813, 383, 131, 66, 170, 263, 676, 286, 64, 764, 558, 28, 51, 131, 358, 860, 950, 613, 232, 429, 363, 331, 13, 585, 827, 727, 96, 531, 172, 710, 447, 939, 795, 119, 318, 915, 461, 435, 442, 768, 937, 533, 970, 597, 104, 815, 420, 53, 979, 33, 577, 482, 882, 393, 216, 278, 202, 563, 357, 752, 242, 352, 249, 983, 841, 850, 619, 401, 144, 832, 491, 38, 170, 99, 718, 901, 200, 798, 325, 683, 864, 624, 801, 377, 11, 512, 587, 185, 390, 318, 28, 313, 383, 477, 704, 400, 983, 816, 924, 693, 671, 537, 799, 363, 594, 680, 523, 285, 78, 88, 356, 581, 760, 715, 307, 930, 275, 717, 73, 754, 670, 957, 898, 688, 839, 739, 611, 209, 517, 897, 240, 975, 544, 394, 3, 391, 179, 654, 900, 911, 614, 387, 109, 689, 554, 716, 375, 887, 213, 306, 268, 623, 898, 168, 633, 767, 225, 63, 566, 831, 879, 729, 417, 426, 529, 905, 303, 281, 606, 967, 188, 31, 116, 563, 604, 184, 191, 595, 647, 691, 729, 62, 485, 835, 958, 319, 851, 646, 927, 230, 697, 841, 477, 101, 194, 157, 93, 152, 616, 105, 759, 737, 817, 804, 714, 925, 957, 626, 966, 104, 103, 65, 207, 375, 459, 681, 743, 84, 404, 544, 376, 118, 598, 375, 684, 496, 963, 946, 73, 760, 722, 296, 117, 480, 355, 738, 919, 383, 291, 499, 697, 790, 576, 296, 337, 849, 520, 51, 421, 238, 667, 74, 272, 97, 478, 985, 542, 387, 934, 92, 356, 811, 766, 362, 17, 251, 459, 383, 517, 54, 219, 975, 443, 472, 86, 280, 955, 688, 508, 53, 393, 779, 435, 594, 903, 646, 636, 37, 24, 770, 414, 875, 826, 916, 379, 1000, 757, 892, 149, 781, 423, 973, 995, 217, 422, 271, 470, 287, 667, 124, 170, 458, 74, 382, 898, 886, 197, 19, 829, 961, 599, 137, 237, 921, 938, 32, 185, 430, 267, 754, 373, 776, 152, 519, 975, 703, 91, 111, 644, 375, 369, 478, 582, 966, 241, 569, 264, 546, 732, 134, 482, 706, 772, 419, 505, 611, 793, 57, 501, 39, 386, 346, 22, 298, 451, 655, 925, 371, 531, 714, 938, 950, 989, 302, 167, 932, 78, 449, 737, 529, 389, 925, 300, 552, 830, 139, 351, 495, 566, 208, 454, 88, 343, 144, 968, 264, 276, 784, 742, 263, 830, 626, 389, 629, 246, 264, 877, ]
Time Consuming: 0.015627145767211914